language ESSENCE' 1.0
$ minion Nodes: 1
$ minion TotalTime: 0.000409
$ Savile Row TotalTime: 0.191
letting pain_tuple3_Explicit_tuple2_tuple1 be [[14]]
letting pain_tuple3_Explicit_tuple1_tuple1 be [[[12]]]
letting pain_tuple1 be [1]
letting pain_tuple3_Explicit_tuple2_tuple2 be [[15]]
letting pain_tuple2_tuple1 be [8]
letting pain_tuple3_Explicit_tuple1_tuple2 be [[[13]]]
letting pain_tuple2_tuple2 be [3]
